0 118955476 32112982
1 118956335 32113378
2 118956324 32114623
3 118956007 32115277
4 118956619 32116245
5 118957311 32115868
6 118957375 32114959
7 118957300 32113173
8 118958191 32114150
9 118958019 32114995
10 118958266 32115849
11 118958877 32114745
12 118959199 32113373
13 118959881 32113478
14 118960224 32114677
15 118959425 32115622
16 118959430 32116195
17 118960396 32116167
18 118960385 32115718
19 118960664 32114795
20 118960921 32113673
21 118962187 32113423
22 118961651 32114318
23 118961329 32114850
24 118961141 32115168
25 118962091 32115281
26 118962021 32115890
27 118961517 32115868
28 118961597 32116485
29 118960771 32115913